CMD:
./solvers/bin/cadical --plain --no-reduce -t 1600 ./data/cnfs//beembrptwo6b1/beembrptwo6b1.85.cnf

c --- [ banner ] -------------------------------------------------------------
c 
c CaDiCaL SAT Solver
c Copyright (c) 2016-2024
c A. Biere, M. Fleury, N. Froleyks, K. Fazekas, F. Pollitt, T. Faller
c JKU Linz, University of Freiburg, TU Wien
c 
c Version 2.1.3 5296d3d2a9bf48c154ab2acb5e44625776d821bf
c g++ (Gentoo 12.3.1_p20230526 p2) 12.3.1 20230526 -Wall -Wextra -O3 -DNDEBUG
c Sat Aug 9 07:26:21 PDT 2025 Linux cedar2.int.cedar.computecanada.ca 5.14.0-362.24.2.el9_3.x86_64 x86_64
c 
c --- [ limit ] --------------------------------------------------------------
c 
c setting time limit to 1600 seconds real time (due to '-t 1600')
c 
c --- [ parsing input ] ------------------------------------------------------
c 
c reading DIMACS file from './data/cnfs//beembrptwo6b1/beembrptwo6b1.85.cnf'
c opening file to read './data/cnfs//beembrptwo6b1/beembrptwo6b1.85.cnf'
c found 'p cnf 357988 1006428' header
c parsed 1006428 clauses in 0.17 seconds process time
c 
c --- [ options ] ------------------------------------------------------------
c 
c   --compact=false                (different from default 'true')
c   --decompose=false              (different from default 'true')
c   --deduplicate=false            (different from default 'true')
c   --elim=false                   (different from default 'true')
c   --probe=false                  (different from default 'true')
c   --reduce=false                 (different from default 'true')
c   --subsume=false                (different from default 'true')
c   --ternary=false                (different from default 'true')
c   --transred=false               (different from default 'true')
c   --vivify=false                 (different from default 'true')
c 
c --- [ solving ] ------------------------------------------------------------
c 
c time measured in process time since initialization
c 
c  seconds   reductions  redundant   irredundant
c          MB    restarts       trail        variables
c           level   conflicts       glue           remaining
c 
c *  0.17 164  0 0   0    0    0  0% 0 1004675 204188 57%
c {  0.19 165  0 0   0    0    0  0% 0 1004675 204188 57%
c i  0.37 167 107 0  12  191  188 61% 2 1004675 204148 57%
c i  0.37 167 107 0  12  192  188 61% 2 1004675 204111 57%
c i  0.37 167 106 0  12  196  191 61% 2 1004675 203820 57%
c i  0.43 167 60 0  32  713  654 51% 2 1004675 203409 57%
c i  0.43 167 60 0  32  715  655 51% 2 1004675 203356 57%
c i  0.43 167 60 0  32  720  658 51% 2 1004675 203312 57%
c i  0.43 167 59 0  32  726  662 51% 2 1004675 203226 57%
c i  0.43 167 59 0  32  733  665 51% 2 1004675 202848 57%
c i  0.45 167 60 0  34  768  697 51% 2 1004675 201604 56%
c i  0.49 167 59 0  39  815  739 52% 2 1004675 201472 56%
c i  0.49 167 58 0  42  826  748 52% 2 1004675 201258 56%
c i  0.50 167 57 0  48  847  764 51% 2 1004675 201191 56%
c i  0.50 167 57 0  51  860  776 51% 2 1004675 201188 56%
c i  0.50 167 56 0  53  865  779 51% 2 1004675 200855 56%
c i  0.50 167 56 0  55  871  784 51% 2 1004675 200560 56%
c i  0.54 167 52 0  82  976  879 51% 2 1004675 200538 56%
c i  0.54 167 52 0  83  978  880 51% 2 1004675 200521 56%
c }  0.55 167 51 0  88 1001  902 51% 2 1004675 200517 56%
c 
c  seconds   reductions  redundant   irredundant
c          MB    restarts       trail        variables
c           level   conflicts       glue           remaining
c 
c [  0.55 167  0 0  88 1001  902  0% 0 1004675 200517 56%
c O  0.55 167 106 0  88 1002  903 53% 5 1004675 200517 56%
c i  0.63 168 105 0  88 1197 1097 66% 1 1004675 200456 56%
c i  0.63 168 112 0  88 1212 1109 65% 1 1004675 200449 56%
c i  0.63 168 115 0  88 1216 1112 65% 1 1004675 200448 56%
c i  0.63 168 121 0  88 1226 1118 64% 1 1004675 200416 56%
c i  0.63 168 122 0  88 1229 1120 64% 1 1004675 200415 56%
c i  0.63 168 125 0  88 1236 1125 64% 1 1004675 200414 56%
c i  0.63 168 127 0  88 1239 1127 63% 1 1004675 200413 56%
c i  0.63 168 131 0  88 1247 1134 63% 1 1004675 200412 56%
c i  0.63 168 133 0  88 1252 1137 63% 1 1004675 200409 56%
c i  0.63 168 133 0  88 1253 1137 63% 1 1004675 200408 56%
c i  0.63 168 134 0  88 1255 1138 63% 1 1004675 200400 56%
c i  0.64 168 140 0  88 1275 1150 62% 1 1004675 200368 56%
c i  0.64 168 141 0  88 1283 1157 62% 1 1004675 200367 56%
c i  0.64 168 142 0  88 1284 1157 62% 1 1004675 200366 56%
c i  0.64 168 145 0  88 1300 1170 61% 1 1004675 200357 56%
c i  0.64 168 146 0  88 1305 1173 61% 1 1004675 200356 56%
c i  0.64 168 147 0  88 1313 1180 61% 1 1004675 200355 56%
c i  0.64 168 148 0  88 1315 1180 61% 1 1004675 200354 56%
c 
c  seconds    reductions  redundant   irredundant
c          MB     restarts       trail        variables
c            level   conflicts       glue           remaining
c 
c i  0.64 168 148 0  88 1316 1180 61% 1 1004675 200352 56%
c i  0.64 168 148 0  88 1319 1182 61% 1 1004675 200351 56%
c i  0.64 168 149 0  88 1333 1190 60% 1 1004675 200309 56%
c i  0.64 168 151 0  88 1361 1216 59% 1 1004675 200308 56%
... skipped 544 lines ...
c            level     conflicts        glue           remaining
c 
c i 11.40 175 157 0 2797 31046 26357 62% 13 506416 173110 48%
c i 11.41 175 157 0 2797 31066 26374 62% 13 506416 172786 48%
c i 11.41 175 157 0 2797 31068 26375 62% 13 506416 172605 48%
c i 11.41 175 157 0 2797 31069 26375 62% 13 506416 172604 48%
c i 11.41 175 156 0 2797 31124 26422 62% 13 506416 172588 48%
c i 11.45 175 155 0 2797 31385 26665 62% 13 506416 172586 48%
c i 11.47 175 154 0 2797 31460 26733 62% 13 506416 172566 48%
c i 11.47 175 154 0 2797 31471 26735 62% 13 506416 172513 48%
c i 11.83 175 142 0 2797 32762 27886 62% 13 506416 172511 48%
c i 12.07 175 141 0 2797 33237 28303 62% 13 506416 172497 48%
c i 12.29 175 144 0 2798 33940 28918 63% 12 506416 172484 48%
c i 12.30 175 144 0 2798 34003 28970 63% 12 506416 172471 48%
c i 12.32 175 144 0 2798 34075 29030 63% 12 506416 172449 48%
c i 12.46 175 141 0 2798 34487 29404 63% 12 506416 172447 48%
c i 12.59 175 137 0 2799 34937 29824 63% 12 506416 172324 48%
c i 12.60 175 137 0 2799 34955 29835 63% 12 506416 172323 48%
c i 12.81 175 135 0 2799 35272 30119 63% 12 506416 172206 48%
c i 12.82 175 135 0 2799 35283 30129 63% 12 506416 172092 48%
c i 12.85 175 135 0 2799 35319 30164 63% 12 506416 172089 48%
c i 12.86 175 135 0 2799 35325 30168 63% 12 506416 171665 48%
c 
c  seconds    reductions     redundant   irredundant
c          MB     restarts          trail        variables
c            level     conflicts        glue           remaining
c 
c i 13.29 175 131 0 2800 35950 30736 64% 12 506416 171664 48%
c B 13.34 175 131 0 2800 36013 30783 64% 12 506416 171664 48%
c i 13.40 175 132 0 2800 36245 30976 64% 12 506416 171650 48%
c i 13.40 175 132 0 2800 36247 30977 64% 12 506416 171645 48%
c i 13.46 175 133 0 2800 36497 31203 65% 12 506416 171527 48%
c i 13.48 175 133 0 2800 36521 31221 65% 12 506416 171512 48%
c i 13.51 175 133 0 2800 36594 31287 65% 12 506416 171510 48%
c i 13.53 175 133 0 2800 36665 31334 65% 12 506416 171509 48%
c i 13.57 175 133 0 2800 36733 31398 65% 12 506416 171506 48%
c i 14.07 175 124 0 2801 38334 32852 64% 12 506416 171504 48%
c i 14.07 175 124 0 2801 38367 32876 64% 12 506416 171502 48%
c i 14.22 175 120 0 2801 39168 33507 64% 13 506416 171467 48%
c i 14.50 175 114 0 2803 40393 34580 63% 13 506416 171465 48%
c i 14.52 175 113 0 2803 40444 34622 63% 13 506416 171459 48%
c i 14.52 175 113 0 2803 40446 34621 63% 13 506416 171410 48%
c i 14.79 175 110 0 2803 41207 35291 63% 13 506416 171409 48%
c i 14.99 175 108 0 2803 41715 35689 63% 13 506416 171392 48%
c ] 14.99 175 108 0 2803 41718 35690 63% 13 506416 171382 48%
c 0 14.99 175 108 0 2803 41718 35690 63% 13 506416 171382 48%
c 
c --- [ result ] -------------------------------------------------------------
c 
s UNSATISFIABLE
c 
c --- [ run-time profiling ] -------------------------------------------------
c 
c process time taken by individual solving procedures
c (percentage relative to process time for solving)
c 
c        14.82  100.00% search
c         8.93   60.24% unstable
c         5.58   37.65% stable
c         0.30    1.99% walk
c         0.17    1.17% parse
c         0.02    0.11% lucky
c         0.00    0.00% simplify
c   =================================
c        14.82   98.84% solve
c 
c last line shows process time for solving
c (percentage relative to total process time)
c 
c --- [ statistics ] ---------------------------------------------------------
c 
c chronological:             18644        44.69 %  of conflicts
c conflicts:                 41718      2815.32    per second
c decisions:                196270     13245.18    per second
c fixed:                    186606        52.13 %  of all variables
c learned:                   39541        94.78 %  per conflict
c learned_lits:            1642068       100.00 %  learned literals
c minimized:                     0         0.00 %  learned literals
c shrunken:                 242693        14.78 %  learned literals
c minishrunken:             254278        15.49 %  learned literals
c otfs:                        463         1.11 %  of conflict
c propagations:          187223505        12.63 M  per second
c rephased:                      8      5214.75    interval
c restarts:                   2803        14.88    interval
c stabilizing:                   3        49.65 %  of conflicts
c subsumed:                   1985         0.19 %  of all clauses
c strengthened:                459         0.04 %  of all clauses
c walked:                        1     41718.00    interval
c 
c seconds are measured in process time for solving
c 
c --- [ resources ] ----------------------------------------------------------
c 
c total process time since initialization:        14.99    seconds
c total real time since initialization:           15.07    seconds
c maximum resident set size of process:          175.89    MB
c 
c --- [ shutting down ] ------------------------------------------------------
c 
c exit 20
